W=5;
H=6;

MAX_TIME=19;
MAX_TRACKS=18;

TARGET=(1,5);

N_TRAINS=3;
TRAINS=[(6,1,TOP),(1,1,DOWN),(4,5,TOP)];

N_INIT_POS=8;
INIT_POS=[
(1,1,STRAIGHT_TD),
(1,3,STRAIGHT_RL),
(1,5,STRAIGHT_RL),
(3,5,STRAIGHT_TD),
(4,5,STRAIGHT_TD),
(5,1,STRAIGHT_TD),
(6,1,STRAIGHT_TD),
(6,3,STRAIGHT_RL),
];
N_TUNNELS=0;
TUNNEL_PAIRS=[];

N_GATES=0;
GATES=[];
N_ACTIVATIONS=0;
ACTIVATIONS=[];

N_DSWITCHES=0;
DSWITCHES=[];
N_STATIONS=2;
STATIONS=[
  (1,3,1),
  (6,3,2),
];
